54575
29, 22, 10, 16, 39, 46, 36, 15, 52, 42, 33, 1, 27, 31, 25, 11, 45, 2, 14, 9, 12, 4, 18, 30, 47, 54, 34, 53, 23, 21, 17, 48, 19, 41, 32, 44, 8, 38, 50, 20, 24, 35, 5, 37, 7, 40, 51, 13, 43, 3, 6, 28, 55, 49, 26
